dataIn/mini.dimacs
c
c /Users/conrad/Desktop/projet_binero/dataIn/mini.dimacs
c
p cnf 4 251 
-1 1 
-1 -2 
2 1 
2 -2 
-3 3 
-3 -4 
4 3 
4 -4 
-1 1 
-1 -3 
3 1 
3 -3 
-2 2 
-2 -4 
4 2 
4 -4 
-1 -3 -2 -4 
-1 -3 2 4 
1 3 -2 -4 
1 3 2 4 
-1 -2 -3 -4 
-1 -2 3 4 
1 2 -3 -4 
1 2 3 4 
