dataIn/mini
c
c un petit binero
c
binero 2 2
1 .
. .